benchmarks/bfuzz0/37482316695971782528124466320832428.smt2
(set-logic QF_FP)
(declare-const x0 (_ FloatingPoint 11 53))
(declare-const x1 (_ FloatingPoint 11 53))
(declare-const x2 (_ FloatingPoint 11 53))
(declare-const x3 (_ FloatingPoint 11 53))
(declare-const x4 (_ FloatingPoint 11 53))
(declare-const x5 (_ FloatingPoint 11 53))
(declare-const x6 (_ FloatingPoint 11 53))
(declare-const x7 (_ FloatingPoint 11 53))
(declare-const x8 (_ FloatingPoint 11 53))
(assert (fp.lt (fp.div RNE x8 x4) (fp.sub RNE x3 x7)))
(assert (fp.leq (fp.div RNE x1 x2) (fp.sub RNE x3 x7)))
(assert (fp.eq (fp.add RNE x2 x4) (fp.div RNE x6 x5)))
(assert (fp.lt (fp.mul RNE x3 x4) (fp.neg x2)))
(assert (fp.geq (fp.sub RNE x2 x2) (fp.neg x3)))
(assert (fp.geq (fp.neg x8) (fp.add RNE x1 x8)))
(assert (fp.lt (fp.div RNE x6 x5) (fp.mul RNE x0 x5)))
(assert (fp.leq (fp.sub RNE x4 x8) (fp.div RNE x0 x1)))
(check-sat)
