db/data/37482316695971782528124466320832428.z3.out
-------------------
2500.082514111
